sing20140414.12
TTAA  64121 48698
99007 28464 24508 00074 28660 24502 92764 24257 31007
85498 19029 36006 70141 09836 34009 50587 05124 07007
40759 14724 07011 30970 29359 14525 25098 39763 14019
20246 53159 13029 15425 66958 09043 10663 81150 28030
88999
77999=
TTCC  6412/ 48698=
TTDD  6412/ 48698
11964 82345 22889 84557 33861 85545 44824 86957 55789
87350 66785 87148 77761 83925 88747 80757
21212 11926 29023 22889 28019 33870 30016 44841 29518
55823 30515 66806 30009 77790 29509 88774 35005 99760
02511 11747 02520=
